100
32
6
21
6
2
21
30
13
10
28
9
21
31
16
26
8
26
9
8
20
28
30
11
6
13
14
30
5
11
6
13
2
5
1
21
4
14
16
1
1
1
2
11
17
5
1
24
18
7
2
18
3
17
2
2
2
2
3
17
3
2
17
2
13
1
7
6
1
24
3
2
18
3
5
5
2
4
4
2
4
5
21
2
2
1
3
21
3
3
2
1
3
3
2
1
3
3
2
18
5
1